(set-logic ALL)
(declare-fun sigmaStar_0 () String)
(declare-fun sigmaStar_1 () String)
(declare-fun literal_20 () String)
(assert (= literal_20 "\u{3c}\u{6c}\u{69}\u{3e}\u{3c}\u{69}\u{6d}\u{67}\u{20}\u{73}\u{72}\u{63}\u{3d}\u{5c}\u{22}\u{69}\u{6d}\u{61}\u{67}\u{65}\u{73}\u{2f}\u{69}\u{6d}\u{73}\u{2e}\u{67}\u{69}\u{66}\u{5c}\u{22}\u{20}\u{61}\u{6c}\u{74}\u{3d}\u{5c}\u{22}\u{49}\u{4d}\u{53}\u{20}\u{43}\u{50}\u{20}\u{50}\u{61}\u{63}\u{6b}\u{61}\u{67}\u{65}\u{5c}\u{22}\u{20}\u{2f}\u{3e}\u{20}\u{20}\u{28}\u{3c}\u{61}\u{20}\u{68}\u{72}\u{65}\u{66}\u{3d}\u{5c}\u{22}\u{6a}\u{61}\u{76}\u{61}\u{73}\u{63}\u{72}\u{69}\u{70}\u{74}\u{3a}\u{d}\u{a}\u{20}\u{20}\u{20}\u{20}\u{20}\u{20}\u{20}\u{20}\u{20}\u{20}\u{20}\u{20}\u{20}\u{20}\u{20}\u{20}\u{20}\u{20}\u{20}\u{20}\u{20}\u{20}\u{20}\u{20}\u{6f}\u{70}\u{65}\u{6e}\u{65}\u{72}\u{2e}\u{64}\u{6f}\u{63}\u{75}\u{6d}\u{65}\u{6e}\u{74}\u{2e}\u{66}\u{6f}\u{72}\u{6d}\u{73}\u{5b}\u{27}\u{66}\u{6f}\u{72}\u{6d}\u{27}\u{5d}\u{2e}\u{72}\u{65}\u{66}\u{65}\u{72}\u{65}\u{6e}\u{63}\u{65}\u{2e}\u{76}\u{61}\u{6c}\u{75}\u{65}\u{20}\u{3d}\u{20}\u{27}\u{23}\u{3b}\u{20}\u{d}\u{a}\u{20}\u{20}\u{20}\u{20}\u{20}\u{20}\u{20}\u{20}\u{20}\u{20}\u{20}\u{20}\u{20}\u{20}\u{20}\u{20}\u{20}\u{20}\u{20}\u{20}\u{20}\u{20}\u{20}\u{20}\u{6f}\u{70}\u{65}\u{6e}\u{65}\u{72}\u{2e}\u{64}\u{6f}\u{63}\u{75}\u{6d}\u{65}\u{6e}\u{74}\u{2e}\u{66}\u{6f}\u{72}\u{6d}\u{73}\u{5b}\u{66}\u{6f}\u{72}\u{6d}\u{27}\u{5d}\u{2e}\u{6e}\u{61}\u{6d}\u{65}\u{2e}\u{76}\u{61}\u{6c}\u{75}\u{65}\u{20}\u{3d}\u{20}\u{27}\u{27}\u{3b}\u{20}\u{d}\u{a}\u{20}\u{20}\u{20}\u{20}\u{20}\u{20}\u{20}\u{20}\u{20}\u{20}\u{20}\u{20}\u{20}\u{20}\u{20}\u{20}\u{20}\u{20}\u{20}\u{20}\u{20}\u{20}\u{20}\u{20}\u{77}\u{69}\u{6e}\u{64}\u{6f}\u{77}\u{2e}\u{63}\u{6c}\u{6f}\u{73}\u{65}\u{28}\u{29}\u{3b}\u{d}\u{a}\u{20}\u{20}\u{20}\u{20}\u{20}\u{20}\u{20}\u{20}\u{20}\u{20}\u{20}\u{20}\u{20}\u{20}\u{20}\u{20}\u{20}\u{20}\u{20}\u{20}\u{5c}\u{22}\u{3e}\u{63}\u{68}\u{6f}\u{6f}\u{73}\u{65}\u{3c}\u{2f}\u{61}\u{3e}\u{29}\u{20}\u{28}\u{3c}\u{61}\u{20}\u{68}\u{72}\u{65}\u{66}\u{3d}\u{5c}\u{22}\u{70}\u{72}\u{65}\u{76}\u{69}\u{65}\u{77}\u{2e}\u{70}\u{68}\u{70}\u{3f}\u{64}\u{69}\u{72}\u{65}\u{63}\u{74}\u{6f}\u{72}\u{79}\u{3d}\u{5c}\u{22}\u{3e}\u{70}\u{72}\u{65}\u{76}\u{69}\u{65}\u{77}\u{3c}\u{2f}\u{61}\u{3e}\u{29}\u{3c}\u{2f}\u{6c}\u{69}\u{3e}\u{5c}\u{6e}"))
(assert (str.in_re literal_20 (re.++ (re.* re.allchar) (re.++ (str.to_re "\u{5c}\u{3c}\u{53}\u{43}\u{52}\u{49}\u{50}\u{54}") (re.* re.allchar)))))
(check-sat)
(get-model)
